c Generated map
c Size: 8 * 8, weights in range: 1 to 10, walls: True, with ratio 0.1
c dim 10 of 10
c
p sp 64 91
c graph contains 64 nodes and 91 arcs
c
a 1 9 9
a 9 1 9
a 1 2 7
a 2 1 7
a 2 10 9
a 10 2 9
a 2 3 5
a 3 2 5
a 3 11 4
a 11 3 4
a 3 4 5
a 4 3 5
a 4 12 2
a 12 4 2
a 4 5 5
a 5 4 5
a 5 13 4
a 13 5 4
a 5 6 3
a 6 5 3
a 6 14 10
a 14 6 10
a 6 7 4
a 7 6 4
a 7 15 7
a 15 7 7
a 7 8 8
a 8 7 8
a 8 16 10
a 16 8 10
a 9 17 8
a 17 9 8
a 9 10 9
a 10 9 9
a 10 18 10
a 18 10 10
a 10 11 5
a 11 10 5
a 11 12 8
a 12 11 8
a 12 20 3
a 20 12 3
a 12 13 7
a 13 12 7
a 13 14 6
a 14 13 6
a 14 15 8
a 15 14 8
a 15 16 2
a 16 15 2
a 16 24 3
a 24 16 3
a 17 18 6
a 18 17 6
a 18 26 9
a 26 18 9
a 24 32 10
a 32 24 10
a 26 34 8
a 34 26 8
a 26 27 10
a 27 26 10
a 27 35 2
a 35 27 2
a 29 37 10
a 37 29 10
a 29 30 2
a 30 29 2
a 30 38 2
a 38 30 2
a 30 31 1
a 31 30 1
a 31 39 9
a 39 31 9
a 31 32 6
a 32 31 6
a 32 40 7
a 40 32 7
a 33 41 2
a 41 33 2
a 33 34 1
a 34 33 1
a 34 42 6
a 42 34 6
a 34 35 4
a 35 34 4
a 35 43 1
a 43 35 1
a 35 36 8
a 36 35 8
a 36 44 4
a 44 36 4
a 36 37 8
a 37 36 8
a 37 45 8
a 45 37 8
a 37 38 1
a 38 37 1
a 38 46 6
a 46 38 6
a 38 39 9
a 39 38 9
a 39 47 7
a 47 39 7
a 39 40 2
a 40 39 2
a 40 48 2
a 48 40 2
a 41 49 5
a 49 41 5
a 41 42 9
a 42 41 9
a 42 50 3
a 50 42 3
a 42 43 3
a 43 42 3
a 43 51 8
a 51 43 8
a 43 44 2
a 44 43 2
a 44 52 1
a 52 44 1
a 44 45 2
a 45 44 2
a 45 53 10
a 53 45 10
a 45 46 2
a 46 45 2
a 46 54 4
a 54 46 4
a 46 47 6
a 47 46 6
a 47 55 8
a 55 47 8
a 47 48 10
a 48 47 10
a 48 56 10
a 56 48 10
a 49 57 1
a 57 49 1
a 49 50 4
a 50 49 4
a 50 58 4
a 58 50 4
a 50 51 10
a 51 50 10
a 51 59 8
a 59 51 8
a 51 52 2
a 52 51 2
a 52 60 2
a 60 52 2
a 52 53 1
a 53 52 1
a 53 61 4
a 61 53 4
a 53 54 8
a 54 53 8
a 54 62 2
a 62 54 2
a 54 55 7
a 55 54 7
a 55 63 3
a 63 55 3
a 55 56 4
a 56 55 4
a 56 64 7
a 64 56 7
a 57 58 3
a 58 57 3
a 58 59 5
a 59 58 5
a 59 60 8
a 60 59 8
a 60 61 6
a 61 60 6
a 61 62 5
a 62 61 5
a 62 63 3
a 63 62 3
a 63 64 6
a 64 63 6
